Generated3SAT/uf5-12/prompts/complex/uf5-7.txt
Please solve the following SAT Problem encoded in DIMACS format, provide line of thoughts, write your final answer as a single solution at the end of response with header 'answer: ' : 
p cnf 5 12
-2 5 1 0
-3 4 5 0
4 -3 5 0
4 5 -2 0
4 5 1 0
4 -5 -3 0
-2 1 4 0
-3 -2 1 0
5 -3 1 0
-2 5 -4 0
5 2 -3 0
1 -2 4 0

