Generated3SAT/uf5-16/uf5-7.cnf
p cnf 5 16
-1 -5 4 0
2 1 4 0
-3 -2 -5 0
4 -5 -2 0
4 -1 2 0
-1 2 -5 0
-5 4 -3 0
4 -2 -5 0
-5 -1 2 0
1 -5 2 0
4 2 -3 0
-5 4 -3 0
-1 4 2 0
-3 -5 -4 0
-5 -2 -3 0
-5 4 -3 0
%
0